FCC Al - primitive cell
4.049
0.0 0.5 0.5
0.5 0.0 0.5
0.5 0.5 0.0
Al
1
Direct
0.0 0.0 0.0
